c 1 root
c 2 root_5
c 3 Deflate
c 4 BZip2
c 5 PPMd
c 6 LZMA2
c 7 LZMA
c 8 root_1
c 9 x_10
c 10 x_8
c 11 x_6
c 12 x_4
c 13 x_2
c 14 x_0
c 15 root_2
c 16 BlockSize_4096
c 17 BlockSize_2048
c 18 BlockSize_1024
c 19 BlockSize_512
c 20 BlockSize_256
c 21 BlockSize_128
c 22 BlockSize_64
c 23 BlockSize_32
c 24 BlockSize_16
c 25 BlockSize_8
c 26 BlockSize_4
c 27 BlockSize_2
c 28 BlockSize_1
c 29 root_3
c 30 Files_100
c 31 Files_90
c 32 Files_80
c 33 Files_70
c 34 Files_60
c 35 Files_50
c 36 Files_40
c 37 Files_30
c 38 Files_20
c 39 Files_10
c 40 Files_0
c 41 tmOff
c 42 mtOff
c 43 HeaderCompressionOff
c 44 filterOff
p cnf 44 210
1 0
2 -3 0
2 -4 0
2 -5 0
2 -6 0
2 -7 0
3 4 5 6 7 -2 0
-3 -4 0
-3 -5 0
-3 -6 0
-3 -7 0
-4 -5 0
-4 -6 0
-4 -7 0
-5 -6 0
-5 -7 0
-6 -7 0
8 -9 0
8 -10 0
8 -11 0
8 -12 0
8 -13 0
8 -14 0
9 10 11 12 13 14 -8 0
-9 -10 0
-9 -11 0
-9 -12 0
-9 -13 0
-9 -14 0
-10 -11 0
-10 -12 0
-10 -13 0
-10 -14 0
-11 -12 0
-11 -13 0
-11 -14 0
-12 -13 0
-12 -14 0
-13 -14 0
15 -16 0
15 -17 0
15 -18 0
15 -19 0
15 -20 0
15 -21 0
15 -22 0
15 -23 0
15 -24 0
15 -25 0
15 -26 0
15 -27 0
15 -28 0
16 17 18 19 20 21 22 23 24 25 26 27 28 -15 0
-16 -17 0
-16 -18 0
-16 -19 0
-16 -20 0
-16 -21 0
-16 -22 0
-16 -23 0
-16 -24 0
-16 -25 0
-16 -26 0
-16 -27 0
-16 -28 0
-17 -18 0
-17 -19 0
-17 -20 0
-17 -21 0
-17 -22 0
-17 -23 0
-17 -24 0
-17 -25 0
-17 -26 0
-17 -27 0
-17 -28 0
-18 -19 0
-18 -20 0
-18 -21 0
-18 -22 0
-18 -23 0
-18 -24 0
-18 -25 0
-18 -26 0
-18 -27 0
-18 -28 0
-19 -20 0
-19 -21 0
-19 -22 0
-19 -23 0
-19 -24 0
-19 -25 0
-19 -26 0
-19 -27 0
-19 -28 0
-20 -21 0
-20 -22 0
-20 -23 0
-20 -24 0
-20 -25 0
-20 -26 0
-20 -27 0
-20 -28 0
-21 -22 0
-21 -23 0
-21 -24 0
-21 -25 0
-21 -26 0
-21 -27 0
-21 -28 0
-22 -23 0
-22 -24 0
-22 -25 0
-22 -26 0
-22 -27 0
-22 -28 0
-23 -24 0
-23 -25 0
-23 -26 0
-23 -27 0
-23 -28 0
-24 -25 0
-24 -26 0
-24 -27 0
-24 -28 0
-25 -26 0
-25 -27 0
-25 -28 0
-26 -27 0
-26 -28 0
-27 -28 0
29 -30 0
29 -31 0
29 -32 0
29 -33 0
29 -34 0
29 -35 0
29 -36 0
29 -37 0
29 -38 0
29 -39 0
29 -40 0
30 31 32 33 34 35 36 37 38 39 40 -29 0
-30 -31 0
-30 -32 0
-30 -33 0
-30 -34 0
-30 -35 0
-30 -36 0
-30 -37 0
-30 -38 0
-30 -39 0
-30 -40 0
-31 -32 0
-31 -33 0
-31 -34 0
-31 -35 0
-31 -36 0
-31 -37 0
-31 -38 0
-31 -39 0
-31 -40 0
-32 -33 0
-32 -34 0
-32 -35 0
-32 -36 0
-32 -37 0
-32 -38 0
-32 -39 0
-32 -40 0
-33 -34 0
-33 -35 0
-33 -36 0
-33 -37 0
-33 -38 0
-33 -39 0
-33 -40 0
-34 -35 0
-34 -36 0
-34 -37 0
-34 -38 0
-34 -39 0
-34 -40 0
-35 -36 0
-35 -37 0
-35 -38 0
-35 -39 0
-35 -40 0
-36 -37 0
-36 -38 0
-36 -39 0
-36 -40 0
-37 -38 0
-37 -39 0
-37 -40 0
-38 -39 0
-38 -40 0
-39 -40 0
1 -8 0
1 -15 0
1 -29 0
1 -41 0
1 -2 0
1 -42 0
1 -43 0
1 -44 0
8 -1 0
15 -1 0
29 -1 0
2 -1 0
